; Automatically generated by map2smt

(set-logic HORN)

(declare-datatypes ((listOfInt 0) )
(((conslistOfInt (headlistOfInt Int) (taillistOfInt listOfInt)) (nillistOfInt))))



(declare-fun adt_new1 (listOfInt listOfInt Bool) Bool)
(declare-fun leq (Int Int Bool) Bool)
(declare-fun append (listOfInt listOfInt listOfInt) Bool)
(declare-fun drop (Int listOfInt listOfInt) Bool)
(declare-fun take (Int listOfInt listOfInt) Bool)
(declare-fun ff () Bool)

(assert
  (forall ( (A Int) (B listOfInt) (C Bool) )
    (=>
      (= C false)
      (adt_new1 nillistOfInt (conslistOfInt A B) C)
    )
  )
)
(assert
  (forall ( (A Int) (B listOfInt) (C Bool) )
    (=>
      (= C false)
      (adt_new1 (conslistOfInt A B) nillistOfInt C)
    )
  )
)
(assert
  (forall ( (A Bool) )
    (=>
      (= A true)
      (adt_new1 nillistOfInt nillistOfInt A)
    )
  )
)
(assert
  (forall ( (A Int) (B listOfInt) (C Int) (D listOfInt) (E Bool) )
    (=>
      (and
        (= E false)
        (>= (- C A) 1)
      )
      (adt_new1 (conslistOfInt A B) (conslistOfInt C D) E)
    )
  )
)
(assert
  (forall ( (A Int) (B listOfInt) (C Int) (D listOfInt) (E Bool) )
    (=>
      (and
        (= E false)
        (<= (- C A) (- 1))
      )
      (adt_new1 (conslistOfInt A B) (conslistOfInt C D) E)
    )
  )
)
(assert
  (forall ( (A Int) (B listOfInt) (C listOfInt) (D Bool) )
    (=>
      (adt_new1 B C D)
      (adt_new1 (conslistOfInt A B) (conslistOfInt A C) D)
    )
  )
)
(assert
  (forall ( (A listOfInt) )
    (append nillistOfInt A A)
  )
)
(assert
  (forall ( (A Int) (B listOfInt) (C listOfInt) (D listOfInt) )
    (=>
      (append B C D)
      (append (conslistOfInt A B) C (conslistOfInt A D))
    )
  )
)
(assert
  (forall ( (A Int) )
    (drop A nillistOfInt nillistOfInt)
  )
)
(assert
  (forall ( (A Int) (B listOfInt) )
    (=>
      (= A 0)
      (drop A B B)
    )
  )
)
(assert
  (forall ( (A Int) (B Int) (C listOfInt) (D listOfInt) (E Int) )
    (=>
      (and
        (= A (+ 1 E))
        (>= E 0)
        (drop E C D)
      )
      (drop A (conslistOfInt B C) D)
    )
  )
)
(assert
  (forall ( (A Int) )
    (take A nillistOfInt nillistOfInt)
  )
)
(assert
  (forall ( (A Int) (B listOfInt) )
    (=>
      (= A 0)
      (take A B nillistOfInt)
    )
  )
)
(assert
  (forall ( (A Int) (B Int) (C listOfInt) (D listOfInt) (E Int) )
    (=>
      (and
        (= A (+ 1 E))
        (>= E 0)
        (take E C D)
      )
      (take A (conslistOfInt B C) (conslistOfInt B D))
    )
  )
)
(assert
  (forall ( (A Bool) (B Int) (C listOfInt) (D listOfInt) (E listOfInt) (F listOfInt) )
    (=>
      (and
        (= A true)
        (>= B 0)
        (take B C D)
        (drop B C E)
        (append D E F)
        (adt_new1 F C A)
      )
      ff
    )
  )
)

(assert (not ff))
(check-sat)
